p cnf 24 251
1 0
2 0
3 0
4 5 0
-4 6 0
7 8 9 10 11 12 13 4 14 0
7 8 9 10 11 12 13 -4 15 0
7 8 9 10 11 12 -13 4 24 0
7 8 9 10 11 12 -13 -4 15 0
7 8 9 10 11 -12 13 4 24 0
7 8 9 10 11 -12 13 -4 15 0
7 8 9 10 11 -12 -13 4 20 0
7 8 9 10 11 -12 -13 -4 15 0
7 8 9 10 -11 12 13 4 17 0
7 8 9 10 -11 12 13 -4 15 0
7 8 9 10 -11 12 -13 4 24 0
7 8 9 10 -11 12 -13 -4 15 0
7 8 9 10 -11 -12 13 4 24 0
7 8 9 10 -11 -12 13 -4 15 0
7 8 9 10 -11 -12 -13 4 20 0
7 8 9 10 -11 -12 -13 -4 15 0
7 8 9 -10 11 12 13 4 17 0
7 8 9 -10 11 12 13 -4 15 0
7 8 9 -10 11 12 -13 4 20 0
7 8 9 -10 11 12 -13 -4 15 0
7 8 9 -10 11 -12 13 4 24 0
7 8 9 -10 11 -12 13 -4 15 0
7 8 9 -10 11 -12 -13 4 24 0
7 8 9 -10 11 -12 -13 -4 15 0
7 8 9 -10 -11 12 13 4 23 0
7 8 9 -10 -11 12 13 -4 15 0
7 8 9 -10 -11 12 -13 4 20 0
7 8 9 -10 -11 12 -13 -4 15 0
7 8 9 -10 -11 -12 13 4 24 0
7 8 9 -10 -11 -12 13 -4 15 0
7 8 9 -10 -11 -12 -13 4 24 0
7 8 9 -10 -11 -12 -13 -4 15 0
7 8 -9 10 11 12 13 4 24 0
7 8 -9 10 11 12 13 -4 15 0
7 8 -9 10 11 12 -13 4 23 0
7 8 -9 10 11 12 -13 -4 22 0
7 8 -9 10 11 -12 13 4 17 0
7 8 -9 10 11 -12 13 -4 15 0
7 8 -9 10 11 -12 -13 4 24 0
7 8 -9 10 11 -12 -13 -4 15 0
7 8 -9 10 -11 12 13 4 20 0
7 8 -9 10 -11 12 13 -4 22 0
7 8 -9 10 -11 12 -13 4 20 0
7 8 -9 10 -11 12 -13 -4 15 0
7 8 -9 10 -11 -12 13 4 23 0
7 8 -9 10 -11 -12 13 -4 15 0
7 8 -9 10 -11 -12 -13 4 17 0
7 8 -9 10 -11 -12 -13 -4 15 0
7 8 -9 -10 11 12 13 4 24 0
7 8 -9 -10 11 12 13 -4 15 0
7 8 -9 -10 11 12 -13 4 24 0
7 8 -9 -10 11 12 -13 -4 15 0
7 8 -9 -10 11 -12 13 4 24 0
7 8 -9 -10 11 -12 13 -4 15 0
7 8 -9 -10 11 -12 -13 4 23 0
7 8 -9 -10 11 -12 -13 -4 15 0
7 8 -9 -10 -11 12 13 4 20 0
7 8 -9 -10 -11 12 13 -4 15 0
7 8 -9 -10 -11 12 -13 4 17 0
7 8 -9 -10 -11 12 -13 -4 15 0
7 8 -9 -10 -11 -12 13 4 20 0
7 8 -9 -10 -11 -12 13 -4 15 0
7 8 -9 -10 -11 -12 -13 4 15 0
7 8 -9 -10 -11 -12 -13 -4 18 0
7 -8 9 10 11 12 13 4 15 0
7 -8 9 10 11 12 13 -4 21 0
7 -8 9 10 11 12 -13 4 24 0
7 -8 9 10 11 12 -13 -4 15 0
7 -8 9 10 11 -12 13 4 23 0
7 -8 9 10 11 -12 13 -4 22 0
7 -8 9 10 11 -12 -13 4 20 0
7 -8 9 10 11 -12 -13 -4 15 0
7 -8 9 10 -11 12 13 4 20 0
7 -8 9 10 -11 12 13 -4 15 0
7 -8 9 10 -11 12 -13 4 20 0
7 -8 9 10 -11 12 -13 -4 15 0
7 -8 9 10 -11 -12 13 4 20 0
7 -8 9 10 -11 -12 13 -4 22 0
7 -8 9 10 -11 -12 -13 4 20 0
7 -8 9 10 -11 -12 -13 -4 22 0
7 -8 9 -10 11 12 13 4 24 0
7 -8 9 -10 11 12 13 -4 15 0
7 -8 9 -10 11 12 -13 4 20 0
7 -8 9 -10 11 12 -13 -4 22 0
7 -8 9 -10 11 -12 13 4 20 0
7 -8 9 -10 11 -12 13 -4 15 0
7 -8 9 -10 11 -12 -13 4 24 0
7 -8 9 -10 11 -12 -13 -4 15 0
7 -8 9 -10 -11 12 13 4 15 0
7 -8 9 -10 -11 12 13 -4 19 0
7 -8 9 -10 -11 12 -13 4 20 0
7 -8 9 -10 -11 12 -13 -4 15 0
7 -8 9 -10 -11 -12 13 4 20 0
7 -8 9 -10 -11 -12 13 -4 22 0
7 -8 9 -10 -11 -12 -13 4 15 0
7 -8 9 -10 -11 -12 -13 -4 22 0
7 -8 -9 10 11 12 13 4 17 0
7 -8 -9 10 11 12 13 -4 15 0
7 -8 -9 10 11 12 -13 4 20 0
7 -8 -9 10 11 12 -13 -4 18 0
7 -8 -9 10 11 -12 13 4 20 0
7 -8 -9 10 11 -12 13 -4 22 0
7 -8 -9 10 11 -12 -13 4 17 0
7 -8 -9 10 11 -12 -13 -4 22 0
7 -8 -9 10 -11 12 13 4 20 0
7 -8 -9 10 -11 12 13 -4 18 0
7 -8 -9 10 -11 12 -13 4 15 0
7 -8 -9 10 -11 12 -13 -4 18 0
7 -8 -9 10 -11 -12 13 4 15 0
7 -8 -9 10 -11 -12 13 -4 22 0
7 -8 -9 10 -11 -12 -13 4 15 0
7 -8 -9 10 -11 -12 -13 -4 22 0
7 -8 -9 -10 11 12 13 4 15 0
7 -8 -9 -10 11 12 13 -4 21 0
7 -8 -9 -10 11 12 -13 4 15 0
7 -8 -9 -10 11 12 -13 -4 22 0
7 -8 -9 -10 11 -12 13 4 15 0
7 -8 -9 -10 11 -12 13 -4 21 0
7 -8 -9 -10 11 -12 -13 4 20 0
7 -8 -9 -10 11 -12 -13 -4 22 0
7 -8 -9 -10 -11 12 13 4 15 0
7 -8 -9 -10 -11 12 13 -4 22 0
7 -8 -9 -10 -11 12 -13 4 15 0
7 -8 -9 -10 -11 12 -13 -4 22 0
7 -8 -9 -10 -11 -12 13 4 20 0
7 -8 -9 -10 -11 -12 13 -4 15 0
7 -8 -9 -10 -11 -12 -13 4 15 0
7 -8 -9 -10 -11 -12 -13 -4 18 0
-7 8 9 10 11 12 13 4 15 0
-7 8 9 10 11 12 13 -4 19 0
-7 8 9 10 11 12 -13 4 20 0
-7 8 9 10 11 12 -13 -4 15 0
-7 8 9 10 11 -12 13 4 15 0
-7 8 9 10 11 -12 13 -4 21 0
-7 8 9 10 11 -12 -13 4 20 0
-7 8 9 10 11 -12 -13 -4 22 0
-7 8 9 10 -11 12 13 4 15 0
-7 8 9 10 -11 12 13 -4 19 0
-7 8 9 10 -11 12 -13 4 15 0
-7 8 9 10 -11 12 -13 -4 18 0
-7 8 9 10 -11 -12 13 4 15 0
-7 8 9 10 -11 -12 13 -4 18 0
-7 8 9 10 -11 -12 -13 4 15 0
-7 8 9 10 -11 -12 -13 -4 22 0
-7 8 9 -10 11 12 13 4 15 0
-7 8 9 -10 11 12 13 -4 22 0
-7 8 9 -10 11 12 -13 4 15 0
-7 8 9 -10 11 12 -13 -4 22 0
-7 8 9 -10 11 -12 13 4 15 0
-7 8 9 -10 11 -12 13 -4 21 0
-7 8 9 -10 11 -12 -13 4 15 0
-7 8 9 -10 11 -12 -13 -4 18 0
-7 8 9 -10 -11 12 13 4 15 0
-7 8 9 -10 -11 12 13 -4 22 0
-7 8 9 -10 -11 12 -13 4 15 0
-7 8 9 -10 -11 12 -13 -4 21 0
-7 8 9 -10 -11 -12 13 4 15 0
-7 8 9 -10 -11 -12 13 -4 22 0
-7 8 9 -10 -11 -12 -13 4 15 0
-7 8 9 -10 -11 -12 -13 -4 19 0
-7 8 -9 10 11 12 13 4 15 0
-7 8 -9 10 11 12 13 -4 18 0
-7 8 -9 10 11 12 -13 4 15 0
-7 8 -9 10 11 12 -13 -4 18 0
-7 8 -9 10 11 -12 13 4 15 0
-7 8 -9 10 11 -12 13 -4 18 0
-7 8 -9 10 11 -12 -13 4 15 0
-7 8 -9 10 11 -12 -13 -4 18 0
-7 8 -9 10 -11 12 13 4 15 0
-7 8 -9 10 -11 12 13 -4 19 0
-7 8 -9 10 -11 12 -13 4 15 0
-7 8 -9 10 -11 12 -13 -4 22 0
-7 8 -9 10 -11 -12 13 4 15 0
-7 8 -9 10 -11 -12 13 -4 18 0
-7 8 -9 10 -11 -12 -13 4 15 0
-7 8 -9 10 -11 -12 -13 -4 21 0
-7 8 -9 -10 11 12 13 4 15 0
-7 8 -9 -10 11 12 13 -4 18 0
-7 8 -9 -10 11 12 -13 4 15 0
-7 8 -9 -10 11 12 -13 -4 19 0
-7 8 -9 -10 11 -12 13 4 15 0
-7 8 -9 -10 11 -12 13 -4 19 0
-7 8 -9 -10 11 -12 -13 4 15 0
-7 8 -9 -10 11 -12 -13 -4 22 0
-7 8 -9 -10 -11 12 13 4 15 0
-7 8 -9 -10 -11 12 13 -4 18 0
-7 8 -9 -10 -11 12 -13 4 15 0
-7 8 -9 -10 -11 12 -13 -4 18 0
-7 8 -9 -10 -11 -12 13 4 15 0
-7 8 -9 -10 -11 -12 13 -4 18 0
-7 8 -9 -10 -11 -12 -13 4 15 0
-7 8 -9 -10 -11 -12 -13 -4 22 0
-7 -8 9 10 11 12 13 4 15 0
-7 -8 9 10 11 12 13 -4 21 0
-7 -8 9 10 11 12 -13 4 15 0
-7 -8 9 10 11 12 -13 -4 22 0
-7 -8 9 10 11 -12 13 4 15 0
-7 -8 9 10 11 -12 13 -4 18 0
-7 -8 9 10 11 -12 -13 4 15 0
-7 -8 9 10 11 -12 -13 -4 18 0
-7 -8 9 10 -11 12 13 4 15 0
-7 -8 9 10 -11 12 13 -4 19 0
-7 -8 9 10 -11 12 -13 4 15 0
-7 -8 9 10 -11 12 -13 -4 19 0
-7 -8 9 10 -11 -12 13 4 15 0
-7 -8 9 10 -11 -12 13 -4 16 0
-7 -8 9 10 -11 -12 -13 4 15 0
-7 -8 9 10 -11 -12 -13 -4 19 0
-7 -8 9 -10 11 12 13 4 15 0
-7 -8 9 -10 11 12 13 -4 21 0
-7 -8 9 -10 11 12 -13 4 15 0
-7 -8 9 -10 11 12 -13 -4 22 0
-7 -8 9 -10 11 -12 13 4 15 0
-7 -8 9 -10 11 -12 13 -4 22 0
-7 -8 9 -10 11 -12 -13 4 15 0
-7 -8 9 -10 11 -12 -13 -4 18 0
-7 -8 9 -10 -11 12 13 4 15 0
-7 -8 9 -10 -11 12 13 -4 18 0
-7 -8 9 -10 -11 12 -13 4 15 0
-7 -8 9 -10 -11 12 -13 -4 22 0
-7 -8 9 -10 -11 -12 13 4 15 0
-7 -8 9 -10 -11 -12 13 -4 18 0
-7 -8 9 -10 -11 -12 -13 4 15 0
-7 -8 9 -10 -11 -12 -13 -4 22 0
-7 -8 -9 10 11 12 13 4 15 0
-7 -8 -9 10 11 12 13 -4 18 0
-7 -8 -9 10 11 12 -13 4 15 0
-7 -8 -9 10 11 12 -13 -4 16 0
-7 -8 -9 10 11 -12 13 4 15 0
-7 -8 -9 10 11 -12 13 -4 22 0
-7 -8 -9 10 11 -12 -13 4 15 0
-7 -8 -9 10 11 -12 -13 -4 22 0
-7 -8 -9 10 -11 12 13 4 15 0
-7 -8 -9 10 -11 12 13 -4 22 0
-7 -8 -9 10 -11 12 -13 4 15 0
-7 -8 -9 10 -11 12 -13 -4 18 0
-7 -8 -9 10 -11 -12 13 4 15 0
-7 -8 -9 10 -11 -12 13 -4 22 0
-7 -8 -9 10 -11 -12 -13 4 15 0
-7 -8 -9 10 -11 -12 -13 -4 22 0
-7 -8 -9 -10 11 12 13 4 15 0
-7 -8 -9 -10 11 12 13 -4 22 0
-7 -8 -9 -10 11 12 -13 4 15 0
-7 -8 -9 -10 11 12 -13 -4 22 0
-7 -8 -9 -10 11 -12 13 4 15 0
-7 -8 -9 -10 11 -12 13 -4 16 0
